Nb of jobs, Nb of Machines, Time seed, Machine seed, Upper bound, Lower bound
8,8,-1,-1,-1,-1
Times
47,97,47,64,2,79,3,62
57,41,87,47,27,83,23,48
87,10,65,79,71,88,13,24
72,8,67,49,44,87,97,12
54,65,42,91,55,28,13,28
13,71,51,39,34,72,24,24
8,22,36,89,58,93,28,91
52,73,77,17,34,77,36,1
Machines
7,8,3,2,6,1,5,4
4,3,5,7,6,2,1,8
6,8,2,3,4,1,5,7
3,1,5,2,8,7,4,6
2,5,3,8,1,6,4,7
6,4,5,1,2,8,3,7
1,3,5,7,8,2,6,4
2,1,6,3,8,5,4,7
